
870.0
630.0
630.0
810.0
630.0
630.0
630.0
630.0
630.0
630.0
690.0
630.0
630.0
660.0
630.0
630.0
630.0
630.0
630.0
630.0
630.0
630.0
630.0
630.0
630.0
630.0
630.0
630.0
630.0
630.0
630.0
630.0
630.0
840.0
630.0
630.0
630.0
630.0
630.0
630.0
720.0
630.0
630.0
630.0
630.0
630.0
630.0
630.0
630.0
630.0
930.0
630.0
630.0
630.0
1230.0
630.0
630.0
630.0
630.0
630.0
630.0
630.0
630.0
630.0
630.0
840.0
630.0
630.0
630.0
630.0
630.0
630.0
630.0
1200.0
630.0
630.0
630.0
630.0
930.0
630.0